&CONTROL
/
&SYSTEM
   ntyp             = 1
   nat              = 4
   ibrav            = 0
/
&ELECTRONS
/
&IONS
/
&CELL
/

ATOMIC_SPECIES
Cu 63.546 None

K_POINTS gamma

CELL_PARAMETERS angstrom
3.61664708213606 0.00000000000000 0.00000000000000
0.00000000000000 3.61664708213606 0.00000000000000
-0.00000000000000 0.00000000000000 3.61664708213606

ATOMIC_POSITIONS angstrom
Cu 0.0000000000 0.0000000000 0.0000000000 
Cu 0.0000000000 1.8083235411 1.8083235411 
Cu 1.8083235411 0.0000000000 1.8083235411 
Cu 1.8083235411 1.8083235411 0.0000000000 

